presolving:
(round 1, fast)       151 del vars, 0 del conss, 0 add conss, 0 chg bounds, 0 chg sides, 0 chg coeffs, 0 upgd conss, 0 impls, 300 clqs
(round 2, exhaustive) 151 del vars, 0 del conss, 0 add conss, 0 chg bounds, 0 chg sides, 0 chg coeffs, 300 upgd conss, 0 impls, 300 clqs
   (1.0s) probing: 51/22350 (0.2%) - 0 fixings, 0 aggregations, 0 implications, 0 bound changes
   (1.0s) probing aborted: 50/50 successive totally useless probings
   Deactivated symmetry handling methods, since SCIP was built without symmetry detector (SYM=none).
presolving (3 rounds: 3 fast, 2 medium, 2 exhaustive):
 151 deleted vars, 0 deleted constraints, 0 added constraints, 0 tightened bounds, 0 added holes, 0 changed sides, 0 changed coefficients
 0 implications, 300 cliques
presolved problem has 22499 variables (22350 bin, 0 int, 0 impl, 149 cont) and 22352 constraints
    300 constraints of type <setppc>
  22052 constraints of type <linear>
Presolving Time: 1.00

 time | node  | left  |LP iter|LP it/n|mem/heur|mdpt |vars |cons |rows |cuts |sepa|confs|strbr|  dualbound   | primalbound  |  gap   | compl. 
p 2.0s|     1 |     0 |    88 |     - | vbounds|   0 |  22k|  22k|  22k|   0 |  0 |   5 |   0 | 0.000000e+00 | 2.874797e+05 |    Inf | unknown
  2.0s|     1 |     0 |   546 |     - |   221M |   0 |  22k|  22k|  22k|   0 |  0 |   5 |   0 | 2.154925e+04 | 2.874797e+05 |1234.06%| unknown
  3.0s|     1 |     0 |   727 |     - |   227M |   0 |  22k|  22k|  22k| 122 |  1 |   5 |   0 | 2.272125e+04 | 2.874797e+05 |1165.25%| unknown
  4.0s|     1 |     0 |   799 |     - |   231M |   0 |  22k|  22k|  22k| 166 |  2 |   5 |   0 | 2.319668e+04 | 2.874797e+05 |1139.31%| unknown
  4.0s|     1 |     0 |   868 |     - |   237M |   0 |  22k|  22k|  22k| 181 |  3 |   5 |   0 | 2.395360e+04 | 2.874797e+05 |1100.15%| unknown
  5.0s|     1 |     0 |   922 |     - |   240M |   0 |  22k|  22k|  22k| 194 |  4 |   5 |   0 | 2.429377e+04 | 2.874797e+05 |1083.35%| unknown
  6.0s|     1 |     0 |   930 |     - |   243M |   0 |  22k|  22k|  22k| 196 |  5 |   5 |   0 | 2.433600e+04 | 2.874797e+05 |1081.29%| unknown
  6.0s|     1 |     0 |   991 |     - |   246M |   0 |  22k|  22k|  22k| 234 |  6 |   5 |   0 | 2.433600e+04 | 2.874797e+05 |1081.29%| unknown
  7.0s|     1 |     0 |  1041 |     - |   250M |   0 |  22k|  22k|  22k| 258 |  7 |   5 |   0 | 2.458694e+04 | 2.874797e+05 |1069.24%| unknown
  7.0s|     1 |     0 |  1065 |     - |   253M |   0 |  22k|  22k|  22k| 277 |  8 |   5 |   0 | 2.458694e+04 | 2.874797e+05 |1069.24%| unknown
  8.0s|     1 |     0 |  1080 |     - |   255M |   0 |  22k|  22k|  22k| 285 |  9 |   5 |   0 | 2.458694e+04 | 2.874797e+05 |1069.24%| unknown
  9.0s|     1 |     0 |  1121 |     - |   258M |   0 |  22k|  22k|  22k| 308 | 10 |   5 |   0 | 2.458694e+04 | 2.874797e+05 |1069.24%| unknown
  9.0s|     1 |     0 |  1159 |     - |   262M |   0 |  22k|  22k|  22k| 320 | 11 |   5 |   0 | 2.469369e+04 | 2.874797e+05 |1064.18%| unknown
 10.0s|     1 |     0 |  1172 |     - |   264M |   0 |  22k|  22k|  22k| 334 | 12 |   5 |   0 | 2.469369e+04 | 2.874797e+05 |1064.18%| unknown
 10.0s|     1 |     0 |  1207 |     - |   268M |   0 |  22k|  22k|  22k| 345 | 13 |   5 |   0 | 2.470022e+04 | 2.874797e+05 |1063.87%| unknown
 time | node  | left  |LP iter|LP it/n|mem/heur|mdpt |vars |cons |rows |cuts |sepa|confs|strbr|  dualbound   | primalbound  |  gap   | compl. 
 12.0s|     1 |     0 |  1215 |     - |   270M |   0 |  22k|  22k|  22k| 353 | 14 |   5 |   0 | 2.470022e+04 | 2.874797e+05 |1063.87%| unknown
 12.0s|     1 |     0 |  1229 |     - |   272M |   0 |  22k|  22k|  22k| 359 | 15 |   5 |   0 | 2.471255e+04 | 2.874797e+05 |1063.29%| unknown
 13.0s|     1 |     0 |  1264 |     - |   274M |   0 |  22k|  22k|  22k| 361 | 16 |   5 |   0 | 2.472407e+04 | 2.874797e+05 |1062.75%| unknown
 13.0s|     1 |     0 |  1299 |     - |   277M |   0 |  22k|  22k|  22k| 369 | 17 |   5 |   0 | 2.472708e+04 | 2.874797e+05 |1062.61%| unknown
 14.0s|     1 |     0 |  1355 |     - |   280M |   0 |  22k|  22k|  22k| 386 | 18 |   5 |   0 | 2.476777e+04 | 2.874797e+05 |1060.70%| unknown
 15.0s|     1 |     0 |  1377 |     - |   283M |   0 |  22k|  22k|  22k| 396 | 19 |   5 |   0 | 2.477303e+04 | 2.874797e+05 |1060.45%| unknown
 16.0s|     1 |     0 |  1384 |     - |   285M |   0 |  22k|  22k|  22k| 400 | 20 |   5 |   0 | 2.477303e+04 | 2.874797e+05 |1060.45%| unknown
 16.0s|     1 |     0 |  1393 |     - |   285M |   0 |  22k|  22k|  22k| 410 | 21 |   5 |   0 | 2.477303e+04 | 2.874797e+05 |1060.45%| unknown
 17.0s|     1 |     0 |  1397 |     - |   285M |   0 |  22k|  22k|  22k| 413 | 22 |   5 |   0 | 2.477303e+04 | 2.874797e+05 |1060.45%| unknown
 17.0s|     1 |     0 |  1415 |     - |   285M |   0 |  22k|  22k|  22k| 420 | 23 |   5 |   0 | 2.478573e+04 | 2.874797e+05 |1059.86%| unknown
 18.0s|     1 |     0 |  1416 |     - |   285M |   0 |  22k|  22k|  22k| 421 | 24 |   5 |   0 | 2.478573e+04 | 2.874797e+05 |1059.86%| unknown
 18.0s|     1 |     0 |  1419 |     - |   285M |   0 |  22k|  22k|  22k| 424 | 25 |   5 |   0 | 2.478573e+04 | 2.874797e+05 |1059.86%| unknown
 58.0s|     1 |     2 | 10638 |     - |   291M |   0 |  22k|  22k|  22k| 424 | 27 |  16 |  27 | 2.481323e+04 | 2.874797e+05 |1058.57%| unknown
L 513s|    35 |    36 | 12882 | 339.7 |    alns|  20 |  22k|  22k|  22k| 629 |  2 |  49 | 600 | 2.482302e+04 | 7.377241e+04 | 197.19%| unknown

SCIP Status        : solving was interrupted [time limit reached]
Solving Time (sec) : 600.00
Solving Nodes      : 48
Primal Bound       : +7.37724125280001e+04 (2 solutions)
Dual Bound         : +2.48230230322568e+04
Gap                : 197.19 %
Trying to solve problem with MTZ Solver Method...
Starting Solver, time limit setted to 10 minutes
Route:  [[0, 129], [1, 143], [2, 135], [3, 69], [4, 102], [5, 96], [6, 47], [7, 16], [8, 85], [9, 83], [10, 14], [11, 26], [12, 13], [13, 8], [14, 11], [15, 87], [16, 10], [17, 103], [18, 123], [19, 149], [20, 126], [21, 101], [22, 0], [23, 17], [24, 72], [25, 118], [26, 90], [27, 66], [28, 134], [29, 38], [30, 121], [31, 44], [32, 75], [33, 34], [34, 56], [35, 37], [36, 33], [37, 23], [38, 32], [39, 36], [40, 99], [41, 30], [42, 127], [43, 113], [44, 48], [45, 111], [46, 141], [47, 4], [48, 5], [49, 50], [50, 60], [51, 115], [52, 15], [53, 1], [54, 122], [55, 71], [56, 57], [57, 19], [58, 59], [59, 119], [60, 107], [61, 130], [62, 78], [63, 68], [64, 117], [65, 3], [66, 147], [67, 42], [68, 80], [69, 79], [70, 40], [71, 20], [72, 94], [73, 140], [74, 133], [75, 125], [76, 97], [77, 51], [78, 136], [79, 41], [80, 24], [81, 124], [82, 54], [83, 35], [84, 116], [85, 2], [86, 67], [87, 93], [88, 61], [89, 62], [90, 108], [91, 92], [92, 84], [93, 18], [94, 12], [95, 77], [96, 74], [97, 22], [98, 52], [99, 100], [100, 95], [101, 98], [102, 145], [103, 110], [104, 27], [105, 89], [106, 139], [107, 39], [108, 109], [109, 76], [110, 65], [111, 106], [112, 9], [113, 53], [114, 144], [115, 49], [116, 82], [117, 128], [118, 142], [119, 131], [120, 29], [121, 138], [122, 114], [123, 25], [124, 43], [125, 81], [126, 73], [127, 45], [128, 105], [129, 91], [130, 46], [131, 28], [132, 88], [133, 64], [134, 120], [135, 148], [136, 21], [137, 132], [138, 7], [139, 6], [140, 58], [141, 104], [142, 55], [143, 137], [144, 86], [145, 146], [146, 63], [147, 112], [148, 70], [149, 31]]
An Otimal Solution was found, yay!
Objective value: 73772.4
Problem solved in 13730 iterations
Problem solved in 48 nodes
Final Route Configuration succesfully created at:
data/routes/kroA150.csv
